
  32    4
  10   10   10   10

   0   0   0   0   0   5 2 3 4 7 8 
   4   1   1   1   0   4 16 13 9 5 
  10   3   5   7   0   5 14 13 10 9 6 
   8   5   0   4   1   4 16 14 10 6 
   8   4   6   0   3   9 30 25 20 18 17 14 12 11 10 
   9   7   0   3   4   8 30 25 20 19 18 17 12 11 
   8   6   3   6   0   7 31 30 25 20 19 17 11 
   6   6   6   0   6   6 25 19 18 17 12 11 
   3   3   2   1   0   3 30 17 11 
  10   0   4   6   3   4 23 22 19 15 
   3   3   0   4   2   4 23 22 21 15 
  10   6   0   3   6   4 31 23 22 15 
   5   0   4   6   7   4 27 23 22 20 
  10   4   0   2   3   3 23 22 19 
   4   3   4   0   8   4 29 28 26 24 
   2   0   4   5   6   4 30 27 22 21 
   8   5   6   0   5   3 29 26 24 
   8   5   5   6   0   3 28 27 26 
  10   2   2   6   0   2 27 21 
   2   2   0   2   4   1 21 
   6   0   4   3   1   1 26 
   9   4   7   0   2   1 26 
  10   4   3   3   0   1 26 
   8   4   0   2   5   1 27 
   4   0   2   4   7   1 26 
   3   0   5   4   2   1 32
   4   5   0   1   3   1 32
   6   4   6   6   0   1 32
   8   4   0   6   2   1 32
   8   4   3   5   0   1 32
   1   2   2   4   0   1 32
   0   0   0   0   0   0 
